120
150
49
59
47
60
43
42
60
43
58
47
60
43
55
49
55
49
47
49
58
47
43
59
40
51
57
51
46
45
55
46
55
52
57
47
49
46
43
53
40
60
50
57
49
53
59
47
48
46
53
51
44
48
43
59
56
45
60
44
58
44
58
45
57
46
49
50
57
48
60
40
50
47
47
46
43
50
52
57
43
54
49
50
48
55
46
59
40
51
49
59
60
57
48
58
44
48
47
45
48
51
51
45
40
40
43
60
40
50
48
56
46
42
60
60
40
41
49
60
60
60
